
Gurobi 10.0.3 (linux64, gurobi_cl) logging started Fri Nov 10 22:32:09 2023

Set parameter Username
Set parameter TimeLimit to value 3600
Set parameter LogFile to value "RCPSP_2040.log"
Set parameter Threads to value 32
Academic license - for non-commercial use only - expires 2024-10-30
Using license file /home/jrivera6/gurobi-licenses/v1003/compute-0-37/gurobi.lic

Gurobi Optimizer version 10.0.3 build v10.0.3rc0 (linux64)
Copyright (c) 2023, Gurobi Optimization, LLC

Read MPS format model from file RCPSP_2040.mps
Reading time = 0.27 seconds
RCPSP_2040: 75288 rows, 29890 columns, 280622 nonzeros

CPU model: Intel(R) Xeon(R) Gold 6242 CPU @ 2.80GHz, instruction set [SSE2|AVX|AVX2|AVX512]
Thread count: 32 physical cores, 32 logical processors, using up to 32 threads

Optimize a model with 75288 rows, 29890 columns and 280622 nonzeros
Model fingerprint: 0xa69b6a8d
Variable types: 122 continuous, 29768 integer (29768 binary)
Coefficient statistics:
  Matrix range     [1e+00, 6e+02]
  Objective range  [1e+00, 1e+00]
  Bounds range     [1e+00, 1e+00]
  RHS range        [1e+00, 6e+02]
Presolve removed 11496 rows and 1745 columns (presolve time = 5s) ...
Presolve removed 12176 rows and 2425 columns
Presolve time: 8.03s
Presolved: 63112 rows, 27465 columns, 248176 nonzeros
Variable types: 121 continuous, 27344 integer (27344 binary)

Deterministic concurrent LP optimizer: primal and dual simplex (primal and dual model)
Showing first log only...

Root relaxation presolved: 63112 rows, 27465 columns, 248176 nonzeros


Root simplex log...

Iteration    Objective       Primal Inf.    Dual Inf.      Time
       0    8.7469499e+01   2.337526e-02   2.902891e+08     10s
    3358    8.5000000e+01   0.000000e+00   0.000000e+00     12s
Concurrent spin time: 0.49s

Solved with dual simplex (primal model)

Root relaxation: objective 8.500000e+01, 9952 iterations, 3.43 seconds (0.42 work units)
Total elapsed time = 15.98s

    Nodes    |    Current Node    |     Objective Bounds      |     Work
 Expl Unexpl |  Obj  Depth IntInf | Incumbent    BestBd   Gap | It/Node Time

     0     0   85.00000    0  114          -   85.00000      -     -   20s
     0     0   85.00000    0  811          -   85.00000      -     -   57s
     0     0   85.00000    0  771          -   85.00000      -     -   63s
     0     0   85.00000    0  763          -   85.00000      -     -   64s
     0     0   85.00000    0  760          -   85.00000      -     -   69s
     0     0   85.00000    0  230          -   85.00000      -     -  111s
     0     0   85.00000    0  348          -   85.00000      -     -  139s
     0     0   85.00000    0  212          -   85.00000      -     -  169s
     0     0   85.00000    0  463          -   85.00000      -     -  252s
     0     0   85.00000    0  457          -   85.00000      -     -  253s
     0     0   85.00000    0  455          -   85.00000      -     -  253s
     0     0   85.00000    0  221          -   85.00000      -     -  275s
     0     0   85.00000    0  481          -   85.00000      -     -  281s
     0     0   85.00000    0  451          -   85.00000      -     -  281s
     0     0   85.00000    0  211          -   85.00000      -     -  305s
     0     0   85.00000    0  423          -   85.00000      -     -  309s
     0     0   85.00000    0  323          -   85.00000      -     -  347s
     0     0   85.00000    0  190          -   85.00000      -     -  411s
     0     2   85.00000    0  134          -   85.00000      -     -  473s
     1     4   85.00000    1  136          -   85.00000      -  2266  485s
     3     8   85.00000    2  136          -   85.00000      -   925  496s
     7    16   85.00000    3 1277          -   85.00000      -   601  535s
    15    32   85.00000    4  970          -   85.00000      -   900  577s
    31    61   85.00000    5  853          -   85.00000      -   933  633s
    63    92   85.00000    6  961          -   85.00000      -   834  685s
    95   124   85.00000    7  832          -   85.00000      -   748  711s
   127   156   85.00000    8  812          -   85.00000      -   574  734s
   159   186   85.00000    9  808          -   85.00000      -   471  757s
   191   223   85.00000   10  158          -   85.00000      -   453  802s
   228   260   85.00000   11  157          -   85.00000      -   589  826s
   270   298   85.00000   12  157          -   85.00000      -   505  850s
   312   339   85.00000   13  157          -   85.00000      -   442  875s
   358   384   85.00000   14  159          -   85.00000      -   389  896s
   408   429   85.00000   15  157          -   85.00000      -   344  917s
   457   482   85.00000   16  156          -   85.00000      -   310  937s
   511   526   85.00000   17  156          -   85.00000      -   279  960s
   561   577   85.00000   19  165          -   85.00000      -   255  983s
   617   625   85.00000   20  165          -   85.00000      -   236 1005s
   675   688   85.00000   21  167          -   85.00000      -   218 1027s
   748   752   85.00000   22  165          -   85.00000      -   200 1047s
   819   822   85.00000   24  165          -   85.00000      -   183 1074s
   893   901   85.00000   25  165          -   85.00000      -   170 1094s
   975   995   85.00000   27  166          -   85.00000      -   157 1111s
  1073  1107   85.00000   30  167          -   85.00000      -   144 1133s
  1187  1234   85.00000   32  167          -   85.00000      -   131 1156s
  1316  1473   85.00000   34  167          -   85.00000      -   120 1190s
  1561  1752   85.00000   39  177          -   85.00000      -   104 1216s
  1845  2177   85.00000   48  227          -   85.00000      -  91.6 1261s
  2281  2708   85.00000   53  190          -   85.00000      -  78.8 1307s
  2820  3344   85.00000   61  304          -   85.00000      -  69.6 1359s
  3514  4114   85.00000   77  386          -   85.00000      -  62.7 1438s
  4343  4814   85.00000   79  624          -   85.00000      -  58.4 1507s
  5108  5593   85.00000   81  237          -   85.00000      -  60.5 1594s
  6010  6341   85.00000   89  267          -   85.00000      -  60.8 1683s
  6837  7244   93.00000  108  587          -   85.00000      -  60.6 1781s
  7822  8008   93.00000  165  493          -   85.00000      -  65.7 2282s
  8686  9246   96.00000  198  522          -   85.00000      -  67.4 2510s
 10135 10924   88.00000   91  443          -   85.00000      -  70.9 3772s
 10937 10924   89.00000   21  388          -   85.00000      -  69.9 3796s
 11299 10924   85.00000  130  123          -   85.00000      -  69.5 3803s
 11547 10924   85.00000  131  156          -   85.00000      -  68.7 3813s

Cutting planes:
  Gomory: 24
  Lift-and-project: 2
  Cover: 170
  Implied bound: 422
  MIR: 1354
  StrongCG: 1
  RLT: 1221
  Relax-and-lift: 200

Explored 11995 nodes (983399 simplex iterations) in 4011.97 seconds (111.77 work units)
Thread count was 32 (of 32 available processors)

Solution count 0

Time limit reached
Best objective -, best bound 8.500000000000e+01, gap -

Unable to retrieve attribute 'X'


Gurobi 10.0.3 (linux64, gurobi_cl) logging started Tue Nov 14 09:36:06 2023

Set parameter Username
Set parameter TimeLimit to value 3600
Set parameter LogFile to value "RCPSP_2040.log"
Set parameter Threads to value 32
Academic license - for non-commercial use only - expires 2024-10-30
Using license file /home/jrivera6/gurobi-licenses/v1003/compute-0-34/gurobi.lic

Gurobi Optimizer version 10.0.3 build v10.0.3rc0 (linux64)
Copyright (c) 2023, Gurobi Optimization, LLC

Read MPS format model from file RCPSP_2040.mps
Reading time = 0.14 seconds
RCPSP_2040: 75288 rows, 29890 columns, 280622 nonzeros

CPU model: Intel(R) Xeon(R) Gold 6130 CPU @ 2.10GHz, instruction set [SSE2|AVX|AVX2|AVX512]
Thread count: 32 physical cores, 32 logical processors, using up to 32 threads

Optimize a model with 75288 rows, 29890 columns and 280622 nonzeros
Model fingerprint: 0xa69b6a8d
Variable types: 122 continuous, 29768 integer (29768 binary)
Coefficient statistics:
  Matrix range     [1e+00, 6e+02]
  Objective range  [1e+00, 1e+00]
  Bounds range     [1e+00, 1e+00]
  RHS range        [1e+00, 6e+02]
Presolve removed 11496 rows and 1745 columns (presolve time = 5s) ...
Presolve removed 12176 rows and 2425 columns
Presolve time: 6.36s
Presolved: 63112 rows, 27465 columns, 248176 nonzeros
Variable types: 121 continuous, 27344 integer (27344 binary)

Deterministic concurrent LP optimizer: primal and dual simplex (primal and dual model)
Showing first log only...

Root relaxation presolved: 63112 rows, 27465 columns, 248176 nonzeros


Root simplex log...

Iteration    Objective       Primal Inf.    Dual Inf.      Time
       0    8.7469499e+01   2.337526e-02   2.902891e+08      8s
    3358    8.5000000e+01   0.000000e+00   0.000000e+00      9s
Concurrent spin time: 0.13s

Solved with dual simplex (primal model)

Root relaxation: objective 8.500000e+01, 9952 iterations, 2.33 seconds (0.42 work units)
Total elapsed time = 11.79s

    Nodes    |    Current Node    |     Objective Bounds      |     Work
 Expl Unexpl |  Obj  Depth IntInf | Incumbent    BestBd   Gap | It/Node Time

     0     0   85.00000    0  114          -   85.00000      -     -   15s
     0     0   85.00000    0  811          -   85.00000      -     -   34s
     0     0   85.00000    0  771          -   85.00000      -     -   37s
     0     0   85.00000    0  763          -   85.00000      -     -   37s
     0     0   85.00000    0  760          -   85.00000      -     -   40s
     0     0   85.00000    0  230          -   85.00000      -     -   55s
     0     0   85.00000    0  348          -   85.00000      -     -   64s
     0     0   85.00000    0  212          -   85.00000      -     -   75s
     0     0   85.00000    0  463          -   85.00000      -     -  102s
     0     0   85.00000    0  457          -   85.00000      -     -  102s
     0     0   85.00000    0  455          -   85.00000      -     -  102s
     0     0   85.00000    0  221          -   85.00000      -     -  111s
     0     0   85.00000    0  481          -   85.00000      -     -  113s
     0     0   85.00000    0  451          -   85.00000      -     -  113s
     0     0   85.00000    0  211          -   85.00000      -     -  123s
     0     0   85.00000    0  423          -   85.00000      -     -  125s
     0     0   85.00000    0  323          -   85.00000      -     -  142s
     0     0   85.00000    0  190          -   85.00000      -     -  169s
     0     2   85.00000    0  134          -   85.00000      -     -  198s
     1     4   85.00000    1  136          -   85.00000      -  2266  207s
     3     8   85.00000    2  136          -   85.00000      -   925  212s
     7    16   85.00000    3 1277          -   85.00000      -   601  246s
    15    32   85.00000    4  970          -   85.00000      -   900  284s
    31    61   85.00000    5  853          -   85.00000      -   933  322s
    63    92   85.00000    6  961          -   85.00000      -   834  360s
    95   124   85.00000    7  832          -   85.00000      -   748  377s
   127   156   85.00000    8  812          -   85.00000      -   574  388s
   159   186   85.00000    9  808          -   85.00000      -   471  401s
   191   223   85.00000   10  158          -   85.00000      -   453  440s
   228   260   85.00000   11  157          -   85.00000      -   589  452s
   270   298   85.00000   12  157          -   85.00000      -   505  462s
   312   339   85.00000   13  157          -   85.00000      -   442  473s
   358   384   85.00000   14  159          -   85.00000      -   389  481s
   408   429   85.00000   15  157          -   85.00000      -   344  487s
   457   482   85.00000   16  156          -   85.00000      -   310  494s
   511   526   85.00000   17  156          -   85.00000      -   279  504s
   561   577   85.00000   19  165          -   85.00000      -   255  514s
   617   625   85.00000   20  165          -   85.00000      -   236  522s
   675   688   85.00000   21  167          -   85.00000      -   218  531s
   748   752   85.00000   22  165          -   85.00000      -   200  539s
   819   822   85.00000   24  165          -   85.00000      -   183  549s
   893   901   85.00000   25  165          -   85.00000      -   170  558s
   975   995   85.00000   27  166          -   85.00000      -   157  566s
  1073  1107   85.00000   30  167          -   85.00000      -   144  575s
  1187  1234   85.00000   32  167          -   85.00000      -   131  586s
  1316  1473   85.00000   34  167          -   85.00000      -   120  600s
  1561  1752   85.00000   39  177          -   85.00000      -   104  612s
  1845  2177   85.00000   48  227          -   85.00000      -  91.6  630s
  2281  2708   85.00000   53  190          -   85.00000      -  78.8  651s
  2820  3344   85.00000   61  304          -   85.00000      -  69.6  678s
  3514  4114   85.00000   77  386          -   85.00000      -  62.7  715s
  4343  4814   85.00000   79  624          -   85.00000      -  58.4  752s
  5108  5593   85.00000   81  237          -   85.00000      -  60.5  794s
  6010  6341   85.00000   89  267          -   85.00000      -  60.8  848s
  6837  7244   93.00000  108  587          -   85.00000      -  60.6  906s
  7822  8008   93.00000  165  493          -   85.00000      -  65.7 1079s
  8686  9246   96.00000  198  522          -   85.00000      -  67.4 1160s
 10135 11006   88.00000   91  443          -   85.00000      -  70.9 1225s
 12106 13755   88.00000  173  357          -   85.00000      -  70.5 1310s
 15156 13756   91.00000   85  190          -   85.00000      -  66.7 1481s
 15158 13757   89.00000  214  159          -   85.00000      -  66.7 1500s
 15159 13758   91.00000   27  168          -   85.00000      -  66.7 1511s
 15161 13759   91.01167  133  112          -   85.00000      -  66.7 1525s
 15163 13761   94.00000   51  105          -   85.00000      -  66.7 1549s
 15164 13761   92.00000   53  555          -   85.00000      -  66.7 1561s
 15165 13762   85.00000   40  135          -   85.00000      -  66.7 1576s
 15166 13763   88.00000  134  457          -   85.00000      -  66.7 1582s
 15167 13763   88.00000   68  212          -   85.00000      -  66.7 1594s
 15168 13764   89.00000   77  677          -   85.00000      -  66.7 1597s
 15169 13765   93.00000  262  114          -   85.00000      -  66.7 1609s
 15170 13765  107.00000  250  625          -   85.00000      -  66.7 1616s
 15171 13766   88.00000  165   54          -   85.00000      -  66.7 1625s
 15173 13767   89.00000  123   78          -   85.00000      -  66.7 1634s
 15174 13768   86.00000  166  391          -   85.00000      -  66.7 1637s
 15175 13769   86.00000   53   88          -   85.00000      -  66.7 1651s
 15176 13769   90.00000  347  511          -   85.00000      -  66.7 1655s
 15177 13770   86.00000  127  112          -   85.00000      -  66.7 1660s
 15179 13771   92.00000  255  111          -   85.00000      -  66.6 1705s
 15180 13775   85.00000   13  122          -   85.00000      -   9.2 1743s
 15182 13778   85.00000   14  152          -   85.00000      -   9.2 1791s
 15186 13785   85.00000   15  189          -   85.00000      -   9.3 1804s
 15194 13798   85.00000   16  185          -   85.00000      -   9.4 1817s
 15210 13825   85.00000   17  185          -   85.00000      -   9.5 1825s
 15242 13844   85.00000   18  185          -   85.00000      -   9.7 1831s
 15274 13865   91.00000   18  527          -   85.00000      -   9.7 1840s
 15306 13883   85.00000   19  269          -   85.00000      -   9.9 1848s
 15338 13902   85.00000   19  183          -   85.00000      -  10.0 1855s
 15370 13921   85.00000   20  185          -   85.00000      -  10.0 1886s
 15402 13941   91.00000   20  265          -   85.00000      -  12.8 1895s
 15435 13957   85.00000   21  243          -   85.00000      -  13.0 1904s
 15471 13976   85.00000   21  849          -   85.00000      -  13.1 1917s
 15507 13995   85.00000   22   41          -   85.00000      -  13.7 1941s
 15544 14012   89.00000   22  368          -   85.00000      -  14.2 1951s
 15580 14041   85.00000   23   71          -   85.00000      -  14.2 1963s
 15630 14061   85.00000   24  135          -   85.00000      -  14.3 1997s
 15677 14103   88.00000   24  247          -   85.00000      -  14.5 2002s
 15740 14178   85.00000   25  131          -   85.00000      -  14.6 2010s
 15854 14210   85.00000   26  131          -   85.00000      -  14.7 2025s
 15929 14357   85.00000   27  131          -   85.00000      -  14.9 2037s
 16114 14459   85.00000   28  105          -   85.00000      -  15.0 2050s
 16295 14555   99.00000   31  393          -   85.00000      -  15.2 2070s
 16454 14791   85.00000   32   93          -   85.00000      -  15.3 2088s
 16779 14988   85.00000   34  407          -   85.00000      -  15.5 2110s
 17111 15475   85.00000   37  349          -   85.00000      -  16.0 2143s
 17770 15870   85.00000   42  102          -   85.00000      -  17.5 2196s
 18454 16481   85.00000   42   50          -   85.00000      -  17.8 2224s
 19426 16580   85.00000   43   52          -   85.00000      -  18.4 2273s
 19965 17573   85.00000   51  145          -   85.00000      -  19.2 2303s
 21312 19110   85.00000   61  156          -   85.00000      -  19.9 2358s
 23779 18367   85.00000   79  156          -   85.00000      -  22.2 2494s
H23815 17058                      94.0180361   85.00000  9.59%  22.3 2494s
H23840 14610                      92.0000000   85.00000  7.61%  22.4 2494s
H23899 13393                      89.0000000   85.00000  4.49%  22.4 2548s
H26464 10392                      88.0000000   85.00000  3.41%  23.0 2714s
H26494  8954                      87.0000000   85.00000  2.30%  23.3 2714s
 26613  8822   85.00000  126  190   87.00000   85.00000  2.30%  23.4 2779s
 26615  8823   86.00000  121  119   87.00000   85.00000  2.30%  23.4 2786s
 26617  8825   86.00000   55  110   87.00000   85.00000  2.30%  23.4 2792s
 26619  8826   85.00000   45  116   87.00000   85.00000  2.30%  23.4 2796s
 26621  8827   85.00000  131  140   87.00000   85.00000  2.30%  23.4 2802s
 26623  8829   85.00000  148  130   87.00000   85.00000  2.30%  23.4 2807s
 26625  8830   86.00000  123  159   87.00000   85.00000  2.30%  23.4 2814s
 26626  8831   85.00000  150  195   87.00000   85.00000  2.30%  23.4 2816s
 26628  8832   85.00000  145  147   87.00000   85.00000  2.30%  23.4 2825s
 26631  8837   85.00000   28  128   87.00000   85.00000  2.30%  26.1 2848s
 26633  8838   85.00000   29  241   87.00000   85.00000  2.30%  26.1 2851s
 26643  8840   85.00000   31  237   87.00000   85.00000  2.30%  26.1 2858s
 26650  8847   85.00000   32  239   87.00000   85.00000  2.30%  26.2 2864s
 26661  8860   85.00000   33  237   87.00000   85.00000  2.30%  26.2 2880s
 26681  8879   85.00000   34  237   87.00000   85.00000  2.30%  26.2 2885s
 26713  8898   85.00000   35  239   87.00000   85.00000  2.30%  26.5 3100s
H26715  8455                      86.0000000   85.00000  1.16%  26.5 3100s
 26745  8453   85.00000   36  237   86.00000   85.00000  1.16%  26.5 3110s
 26777  8462   85.00000   36  502   86.00000   85.00000  1.16%  26.6 3130s
 26809  8474   85.00000   37  173   86.00000   85.00000  1.16%  28.5 3210s
 26842  8509   85.00000   37  161   86.00000   85.00000  1.16%  29.1 3235s
 26893  8533   85.00000   38  175   86.00000   85.00000  1.16%  30.3 3256s
 26945  8639   85.00000   38  242   86.00000   85.00000  1.16%  31.3 3287s
 27117  9009     cutoff   41        86.00000   85.00000  1.16%  32.6 3327s
 27750  9757   85.00000   56  337   86.00000   85.00000  1.16%  37.1 3389s
 29357  9988 infeasible   77        86.00000   85.00000  1.16%  42.3 3507s
 30698  9543   85.00000   69  190   86.00000   85.00000  1.16%  48.3 3594s

Explored 30699 nodes (2637010 simplex iterations) in 3600.63 seconds (415.99 work units)
Thread count was 32 (of 32 available processors)

Solution count 6: 86 87 88 ... 94.018

Time limit reached
Best objective 8.600000000000e+01, best bound 8.500000000000e+01, gap 1.1628%

Wrote result file 'RCPSP_2040.sol'

